;  time  = 600
;  terms = 98
;  score = 0.5864978902953587
(set-logic QF_FP)
(declare-const x0 (_ FloatingPoint 8 24))
(declare-const x1 (_ FloatingPoint 8 24))
(declare-const x2 (_ FloatingPoint 8 24))
(declare-const x3 (_ FloatingPoint 8 24))
(declare-const x4 (_ FloatingPoint 8 24))
(declare-const x5 (_ FloatingPoint 8 24))
(declare-const x6 (_ FloatingPoint 8 24))
(declare-const x7 (_ FloatingPoint 8 24))
(declare-const x8 (_ FloatingPoint 8 24))
(declare-const x9 (_ FloatingPoint 8 24))
(declare-const x10 (_ FloatingPoint 8 24))
(declare-const x11 (_ FloatingPoint 8 24))
(declare-const x12 (_ FloatingPoint 8 24))
(declare-const x13 (_ FloatingPoint 8 24))
(declare-const x14 (_ FloatingPoint 8 24))
(assert (fp.isSubnormal (fp.add RNE (fp.sub RNE x9 (fp.neg (fp.abs (fp.sub RNE (fp.neg x2) (fp.sub RNE (fp.sub RNE x5 (fp.add RNE (fp.abs x8) (fp.neg x9))) (fp.add RNE x11 x14)))))) (fp.add RNE (fp.abs (fp.add RNE (fp.add RNE x1 (fp.sub RNE x1 x5)) (fp.mul RNE x9 x0))) (fp.sub RNE (fp.add RNE (fp.abs (fp.mul RNE (fp.sub RNE x4 (fp.abs (fp.neg x13))) (fp.add RNE (fp.neg (fp.sub RNE x2 x0)) x14))) (fp.sub RNE (fp.abs (fp.neg (fp.neg (fp.add RNE x11 x5)))) (fp.add RNE (fp.abs x9) (fp.abs (fp.mul RNE (fp.neg x10) (fp.add RNE x13 x4)))))) (fp.sub RNE (fp.add RNE (fp.add RNE (fp.sub RNE x7 (fp.mul RNE (fp.mul RNE x9 x9) (fp.sub RNE x5 x1))) (fp.add RNE x5 (fp.abs x5))) (fp.sub RNE (fp.neg (fp.neg (fp.sub RNE x5 x14))) (fp.sub RNE x2 (fp.mul RNE x12 (fp.add RNE x2 x7))))) (fp.abs (fp.neg (fp.add RNE (fp.abs x13) x12)))))))))
(check-sat)